
******************************************************************************
This program contains Ipopt, a library for large-scale nonlinear optimization.
 Ipopt is released as open source code under the Eclipse Public License (EPL).
         For more information visit http://projects.coin-or.org/Ipopt
******************************************************************************

This is Ipopt version 3.12.6, running with linear solver ma57.

Number of nonzeros in equality constraint Jacobian...:        0
Number of nonzeros in inequality constraint Jacobian.:        0
Number of nonzeros in Lagrangian Hessian.............:    28616

Total number of variables............................:     9604
                     variables with only lower bounds:     9604
                variables with lower and upper bounds:        0
                     variables with only upper bounds:        0
Total number of equality constraints.................:        0
Total number of inequality constraints...............:        0
        inequality constraints with only lower bounds:        0
   inequality constraints with lower and upper bounds:        0
        inequality constraints with only upper bounds:        0

iter    objective    inf_pr   inf_du lg(mu)  ||d||  lg(rg) alpha_du alpha_pr  ls
   0  1.9507184e-02 0.00e+00 1.00e+00  -1.0 0.00e+00    -  0.00e+00 0.00e+00   0
   1  2.2823077e+00 0.00e+00 1.13e-02  -1.0 1.00e-01    -  9.89e-01 1.00e+00f  1
   2  8.6510848e-01 0.00e+00 1.21e-02  -3.8 4.86e-02    -  9.02e-01 1.00e+00f  1
   3  5.3320928e-01 0.00e+00 9.73e-03  -3.8 2.74e-01    -  8.56e-01 1.00e+00f  1
   4  4.7622422e-01 0.00e+00 1.50e-09  -3.8 6.79e-02    -  1.00e+00 1.00e+00f  1
   5 -1.1652454e-01 0.00e+00 1.84e-11  -5.7 1.55e-01    -  1.00e+00 1.00e+00f  1
   6 -2.4983630e-01 0.00e+00 1.33e-05  -5.7 6.27e-02    -  1.00e+00 9.98e-01f  1
   7 -2.6217824e-01 0.00e+00 1.84e-11  -5.7 1.62e-02    -  1.00e+00 1.00e+00f  1
   8 -2.6905489e-01 0.00e+00 3.71e-04  -8.6 9.26e-03    -  1.00e+00 7.87e-01f  1
   9 -2.7044190e-01 0.00e+00 3.57e-04  -8.6 3.44e-03    -  1.00e+00 7.01e-01f  1
iter    objective    inf_pr   inf_du lg(mu)  ||d||  lg(rg) alpha_du alpha_pr  ls
  10 -2.7091825e-01 0.00e+00 2.04e-04  -8.6 1.48e-03    -  1.00e+00 7.45e-01f  1
  11 -2.7105820e-01 0.00e+00 8.43e-05  -8.6 5.37e-04    -  1.00e+00 8.24e-01f  1
  12 -2.7109158e-01 0.00e+00 2.52e-14  -8.6 1.51e-04    -  1.00e+00 1.00e+00f  1
  13 -2.7109839e-01 0.00e+00 9.23e-15  -9.0 4.85e-05    -  1.00e+00 1.00e+00f  1

Number of Iterations....: 13

                                   (scaled)                 (unscaled)
Objective...............:  -2.7109838726136815e-01   -2.7109838726136815e-01
Dual infeasibility......:   9.2262976677556163e-15    9.2262976677556163e-15
Constraint violation....:   0.0000000000000000e+00    0.0000000000000000e+00
Complementarity.........:   6.9053311958602110e-09    6.9053311958602110e-09
Overall NLP error.......:   6.9053311958602110e-09    6.9053311958602110e-09


Number of objective function evaluations             = 14
Number of objective gradient evaluations             = 14
Number of equality constraint evaluations            = 0
Number of inequality constraint evaluations          = 0
Number of equality constraint Jacobian evaluations   = 0
Number of inequality constraint Jacobian evaluations = 0
Number of Lagrangian Hessian evaluations             = 13
Total CPU secs in IPOPT (w/o function evaluations)   =      0.137
Total CPU secs in NLP function evaluations           =      0.153

EXIT: Optimal Solution Found.
Note: The following floating-point exceptions are signalling: IEEE_UNDERFLOW_FLAG IEEE_DENORMAL

 ** SUBROUTINE CUTEST_csetup: Warning. The problem has no general constraints. 
 ** Other tools may be preferable ** 

************************ CUTEst statistics ************************


 Package used            :  IPOPT
 Problem                 :  JNLBRNGA  
 # variables             =           10000
 # constraints           =               0
 # objective functions   =        0.2900000E+02
 # objective gradients   =        0.1500000E+02
 # objective Hessians    =        0.1400000E+02
 # Hessian-vector prdct  =        0.0000000E+00
 # constraints functions =        0.0000000E+00
 # constraints gradients =        0.0000000E+00
 # constraints Hessians  =        0.0000000E+00
 Exit code               =               0
 Final f                 =  -0.2710984E+00
 Set up time             =            0.29 seconds
 Solve time              =            0.31 seconds


******************************************************************

System Time =       0.2989999950 s.
